Solver command line: ['C:\\Users\\heiko\\Desktop\\coin_or\\Cbc\\MSVisualStudio\\v17\\x64\\Debug\\cbc.exe', '-printingOptions', 'all', '-import', 'C:\\Users\\heiko\\AppData\\Local\\Temp\\tmpea594_1p.pyomo.lp', '-stat=1', '-solve', '-solu', 'C:\\Users\\heiko\\AppData\\Local\\Temp\\tmpea594_1p.pyomo.soln']

Welcome to the CBC MILP Solver
Version: trunk
Build Date: Jul 15 2023
command line - -printingOptions all -import C:\Users\heiko\AppData\Local\Temp\tmpea594_1p.pyomo.lp -stat 1 -solve -solu C:\Users\heiko\AppData\Local\Temp\tmpea594_1p.pyomo.soln (default strategy 1)
Presolve 48 (-48) rows, 48 (-48) columns and 96 (-120) elements
Statistics for presolved model
Original problem has 24 integers (24 of which binary)
Presolved problem has 24 integers (24 of which binary)
==== 0 zero objective 18 different
==== absolute objective values 18 different
==== for integers 0 zero objective 2 different
6 variables have objective of 3.2
18 variables have objective of 3.6
==== for integers absolute objective values 2 different
6 variables have objective of 3.2
18 variables have objective of 3.6
===== end objective counts


Problem has 48 rows, 48 columns (48 with objective) and 96 elements
Column breakdown:
24 of type 0.0->inf, 0 of type 0.0->up, 0 of type lo->inf, 
0 of type lo->up, 0 of type free, 0 of type fixed, 
0 of type -inf->0.0, 0 of type -inf->up, 24 of type 0.0->1.0 
Row breakdown:
0 of type E 0.0, 0 of type E 1.0, 0 of type E -1.0, 
0 of type E other, 0 of type G 0.0, 0 of type G 1.0, 
0 of type G other, 48 of type L 0.0, 0 of type L 1.0, 
0 of type L other, 0 of type Range 0.0->1.0, 0 of type Range other, 
0 of type Free 
Unable to open file .\1
Continuous objective value is -115.2 - 0.002 seconds
Cgl0011I 24 variables made integer
Cgl0004I processed model has 48 rows, 48 columns (48 integer (24 of which binary)) and 96 elements
Coin3009W Conflict graph built in 0.001 seconds, density: 0.515%
Cgl0015I Clique Strengthening extended 0 cliques, 0 were dominated
Cbc0045I Cutoff increment increased from 0.0001 to 0.1999
Cbc0038I Initial state - 0 integers unsatisfied sum - 0
Cbc0038I Solution found of -115.2
Cbc0038I Before mini branch and bound, 24 integers at bound fixed and 24 continuous
Cbc0038I Mini branch and bound did not improve solution (0.02 seconds)
Cbc0038I After 0.02 seconds - Feasibility pump exiting with objective of -115.2 - took 0.00 seconds
Cbc0012I Integer solution of -115.2 found by feasibility pump after 0 iterations and 0 nodes (0.02 seconds)
Cbc0001I Search completed - best objective -115.2, took 0 iterations and 0 nodes (0.02 seconds)
Cbc0035I Maximum depth 0, 0 variables fixed on reduced cost
Cuts at root node changed objective from -115.2 to -115.2
Probing was tried 0 times and created 0 cuts of which 0 were active after adding rounds of cuts (0 seconds)
Gomory was tried 0 times and created 0 cuts of which 0 were active after adding rounds of cuts (0 seconds)
Knapsack was tried 0 times and created 0 cuts of which 0 were active after adding rounds of cuts (0 seconds)
Clique was tried 0 times and created 0 cuts of which 0 were active after adding rounds of cuts (0 seconds)
OddWheel was tried 0 times and created 0 cuts of which 0 were active after adding rounds of cuts (0 seconds)
MixedIntegerRounding2 was tried 0 times and created 0 cuts of which 0 were active after adding rounds of cuts (0 seconds)
FlowCover was tried 0 times and created 0 cuts of which 0 were active after adding rounds of cuts (0 seconds)
TwoMirCuts was tried 0 times and created 0 cuts of which 0 were active after adding rounds of cuts (0 seconds)
ZeroHalf was tried 0 times and created 0 cuts of which 0 were active after adding rounds of cuts (0 seconds)

Result - Optimal solution found
Objective value:                -115.2
Enumerated nodes:               0
Total iterations:               0
Time (CPU seconds):             0.028
Time (Wallclock seconds):       0.029
Total time (CPU seconds):       0.05   (Wallclock seconds):       0.05

